n 12
M 45.00
SP 50.00
Items
3.00	5.00	45.00	15.00
4.00	7.00	43.00	10.75
4.00	12.00	38.00	9.50
5.00	6.00	44.00	8.80
6.00	5.00	45.00	7.50
6.00	5.00	45.00	7.50
7.00	8.00	42.00	6.00
9.00	5.00	45.00	5.00
9.00	6.00	44.00	4.88
8.00	12.00	38.00	4.75
9.00	12.00	39.00	4.33
8.00	16.00	34.00	4.25
